;; sequence(s): A133623
;; terms: 0 0 2 3 1 0 1 5 4 6 1 11 1 8 6 9 1 16 1 11
;; small program: loop(x - (y * y), x, 1) mod (1 + x)
;; fast program: (1 + (((1 + x) * ((2 + x) * x)) div (2 + (2 + 2)))) mod (1 + x)
(set-logic UFNIA)
(define-fun divf ((a Int) (b Int)) Int (ite (< 0 b) (div a b) (div (- a) (- b))))
(define-fun modf ((a Int) (b Int)) Int (ite (< 0 b) (mod a b) (- (mod (- a) (- b)))))
(declare-fun f0 (Int Int) Int)
(declare-fun g0 (Int) Int)
(declare-fun h0 () Int)
(declare-fun u0 (Int Int) Int)
(declare-fun v0 (Int) Int)
(declare-fun small (Int) Int)
(declare-fun fast (Int) Int)
(assert (forall ((x Int) (y Int)) (= (f0 x y) (- x (* y y)))))
(assert (forall ((x Int)) (= (g0 x) x)))
(assert (= h0 1))
(assert (forall ((x Int) (y Int)) (= (u0 x y) (ite (<= x 0) y (f0 (u0 (- x 1) y) x)))))
(assert (forall ((x Int)) (= (v0 x) (u0 (g0 x) h0))))
(assert (forall ((x Int)) (= (small x) (modf (v0 x) (+ 1 x)))))
(assert (forall ((x Int)) (= (fast x) (modf (+ 1 (divf (* (+ 1 x) (* (+ 2 x) x)) (+ 2 (+ 2 2)))) (+ 1 x)))))
(assert (exists ((c Int)) (and (>= c 0) (not (= (small c) (fast c))))))
(check-sat)
